
n_res = 8;
rcap = [76, 81, 79, 66, 914, 923, 817, 914];
rtype = [1, 1, 1, 1, 2, 2, 2, 2];
n_tasks = 50;
modes =  [{1, 2, 3, 4, 5, 6}, {7, 8, 9, 10, 11, 12}, {13, 14, 15, 16, 17, 18}, {19, 20, 21, 22, 23, 24}, {25, 26, 27, 28, 29, 30}, {31, 32, 33, 34, 35, 36}, {37, 38, 39, 40, 41, 42}, {43, 44, 45, 46, 47, 48}, {49, 50, 51, 52, 53, 54}, {55, 56, 57, 58, 59, 60}, {61, 62, 63, 64, 65, 66}, {67, 68, 69, 70, 71, 72}, {73, 74, 75, 76, 77, 78}, {79, 80, 81, 82, 83, 84}, {85, 86, 87, 88, 89, 90}, {91, 92, 93, 94, 95, 96}, {97, 98, 99, 100, 101, 102}, {103, 104, 105, 106, 107, 108}, {109, 110, 111, 112, 113, 114}, {115, 116, 117, 118, 119, 120}, {121, 122, 123, 124, 125, 126}, {127, 128, 129, 130, 131, 132}, {133, 134, 135, 136, 137, 138}, {139, 140, 141, 142, 143, 144}, {145, 146, 147, 148, 149, 150}, {151, 152, 153, 154, 155, 156}, {157, 158, 159, 160, 161, 162}, {163, 164, 165, 166, 167, 168}, {169, 170, 171, 172, 173, 174}, {175, 176, 177, 178, 179, 180}, {181, 182, 183, 184, 185, 186}, {187, 188, 189, 190, 191, 192}, {193, 194, 195, 196, 197, 198}, {199, 200, 201, 202, 203, 204}, {205, 206, 207, 208, 209, 210}, {211, 212, 213, 214, 215, 216}, {217, 218, 219, 220, 221, 222}, {223, 224, 225, 226, 227, 228}, {229, 230, 231, 232, 233, 234}, {235, 236, 237, 238, 239, 240}, {241, 242, 243, 244, 245, 246}, {247, 248, 249, 250, 251, 252}, {253, 254, 255, 256, 257, 258}, {259, 260, 261, 262, 263, 264}, {265, 266, 267, 268, 269, 270}, {271, 272, 273, 274, 275, 276}, {277, 278, 279, 280, 281, 282}, {283, 284, 285, 286, 287, 288}, {289, 290, 291, 292, 293, 294}, {295, 296, 297, 298, 299, 300}];
succ =  [{13, 11, 8, 7, 6}, {17, 13, 8, 6}, {18, 17, 16, 15, 14, 13, 12}, {18, 17, 13, 8}, {18, 12, 11, 9}, {18, 16, 15, 12, 10}, {29, 23, 18, 17, 16}, {26, 23, 16, 15, 14}, {23, 19, 17, 14}, {26, 23, 19, 14}, {26, 19, 14}, {26, 24, 23, 19}, {29, 24, 22, 20}, {29, 27, 24, 21}, {29, 20}, {19}, {31, 30, 24, 22}, {27, 24, 21}, {20}, {27, 21}, {35, 34, 32, 31, 30, 25}, {26, 25}, {40, 31, 30, 27}, {40, 36, 35, 34, 32}, {40, 33, 28}, {40, 32, 28}, {37, 36, 32}, {38, 37, 36}, {45, 44, 40, 39, 38}, {45, 39, 38, 37}, {45, 39, 38, 37}, {45, 44, 38}, {49, 44, 43, 41, 39}, {45, 43, 41, 39}, {49, 43, 41, 39}, {45, 44, 39}, {49, 44, 43, 42}, {49, 43, 41}, {50, 42}, {49, 42}, {42}, {48, 47, 46}, {50, 48, 46}, {47, 46}, {49}, {}, {}, {}, {}, {}];
n_opt = 300;
dur = [15, 21, 23, 24, 27, 28, 8, 17, 21, 23, 25, 30, 2, 8, 23, 26, 27, 30, 2, 10, 13, 17, 18, 21, 1, 9, 10, 11, 18, 30, 7, 13, 19, 24, 25, 29, 1, 4, 16, 23, 27, 30, 2, 5, 6, 7, 12, 26, 3, 5, 13, 19, 23, 29, 15, 18, 22, 23, 26, 30, 2, 3, 15, 16, 24, 29, 7, 12, 13, 21, 25, 27, 4, 13, 27, 28, 29, 30, 17, 18, 19, 26, 29, 30, 16, 17, 18, 21, 24, 25, 7, 8, 14, 15, 16, 29, 1, 3, 4, 22, 23, 24, 4, 5, 6, 13, 28, 29, 4, 11, 16, 18, 22, 23, 4, 7, 12, 13, 14, 20, 4, 11, 13, 14, 19, 20, 1, 9, 10, 15, 16, 18, 3, 15, 16, 18, 19, 29, 8, 15, 16, 26, 28, 29, 9, 11, 13, 26, 27, 28, 19, 20, 21, 23, 24, 30, 3, 4, 5, 7, 13, 17, 4, 14, 20, 22, 25, 28, 5, 12, 14, 15, 22, 23, 7, 8, 11, 16, 18, 26, 4, 10, 17, 18, 23, 24, 5, 7, 14, 15, 16, 24, 2, 6, 10, 13, 20, 21, 4, 9, 13, 14, 22, 29, 3, 5, 18, 19, 24, 26, 4, 5, 17, 20, 22, 28, 10, 11, 15, 19, 22, 26, 1, 8, 13, 18, 23, 27, 3, 5, 6, 8, 19, 29, 9, 10, 17, 18, 21, 25, 7, 10, 14, 16, 17, 22, 8, 12, 13, 14, 16, 28, 6, 20, 23, 24, 25, 26, 13, 17, 20, 25, 27, 28, 1, 3, 11, 20, 23, 26, 3, 5, 6, 7, 20, 21, 5, 11, 12, 13, 15, 18, 2, 5, 9, 10, 20, 21, 3, 8, 18, 22, 25, 28, 1, 2, 13, 16, 21, 27];
rreq = [|23, 22, 22, 22, 22, 22, 11, 11, 11, 11, 11, 11, 30, 29, 29, 29, 29, 29, 9, 6, 5, 5, 3, 2, 21, 20, 20, 19, 18, 18, 28, 24, 17, 16, 11, 5, 17, 14, 11, 10, 8, 7, 18, 17, 17, 17, 16, 16, 16, 11, 11, 6, 4, 2, 29, 24, 22, 16, 14, 8, 25, 23, 23, 21, 20, 20, 29, 27, 27, 26, 24, 24, 18, 17, 16, 16, 16, 15, 19, 18, 18, 18, 18, 18, 21, 20, 18, 17, 17, 16, 20, 20, 20, 20, 20, 20, 30, 26, 25, 23, 22, 20, 24, 23, 22, 21, 21, 20, 12, 10, 10, 9, 8, 7, 21, 16, 16, 13, 8, 7, 21, 20, 20, 20, 20, 20, 18, 17, 17, 15, 14, 14, 3, 2, 2, 1, 1, 1, 24, 23, 20, 14, 11, 6, 26, 24, 22, 22, 18, 16, 4, 4, 3, 3, 2, 1, 9, 9, 7, 7, 5, 5, 29, 27, 27, 26, 25, 25, 27, 27, 26, 24, 23, 21, 7, 7, 6, 4, 3, 3, 11, 9, 8, 8, 5, 4, 26, 25, 23, 22, 21, 18, 23, 20, 15, 14, 8, 8, 20, 19, 16, 15, 11, 10, 19, 13, 11, 7, 5, 4, 28, 27, 26, 25, 23, 23, 29, 29, 28, 28, 26, 26, 18, 16, 16, 13, 12, 11, 23, 21, 21, 19, 16, 13, 21, 20, 20, 19, 17, 17, 6, 4, 4, 4, 3, 2, 26, 22, 21, 20, 16, 15, 28, 21, 16, 12, 9, 6, 30, 28, 25, 23, 21, 20, 20, 16, 14, 10, 10, 8, 24, 22, 20, 18, 16, 15, 13, 10, 10, 8, 7, 6, 24, 22, 22, 21, 19, 17, 16, 14, 14, 13, 13, 12, 28, 27, 25, 23, 21, 20
 |27, 23, 19, 15, 14, 11, 26, 25, 20, 18, 16, 14, 27, 25, 19, 16, 14, 13, 25, 18, 16, 10, 7, 2, 29, 25, 21, 12, 11, 5, 22, 20, 18, 16, 13, 10, 12, 9, 8, 7, 5, 5, 19, 16, 15, 14, 12, 11, 26, 20, 16, 13, 13, 7, 14, 13, 11, 10, 8, 6, 18, 15, 14, 13, 9, 8, 11, 7, 7, 6, 2, 1, 18, 17, 15, 14, 14, 13, 29, 29, 29, 28, 28, 27, 10, 9, 8, 7, 6, 6, 15, 14, 12, 10, 7, 4, 28, 20, 19, 10, 6, 5, 28, 25, 24, 23, 20, 20, 27, 20, 16, 12, 9, 5, 25, 25, 25, 25, 24, 24, 3, 3, 3, 3, 3, 3, 15, 15, 15, 15, 15, 15, 18, 15, 14, 12, 8, 7, 21, 19, 17, 12, 6, 5, 15, 11, 11, 9, 7, 5, 8, 6, 6, 5, 3, 3, 15, 14, 11, 9, 5, 2, 12, 10, 9, 8, 6, 6, 22, 22, 22, 22, 22, 22, 27, 24, 21, 18, 17, 13, 27, 23, 19, 16, 12, 9, 22, 21, 19, 19, 18, 17, 23, 16, 16, 13, 7, 5, 27, 21, 19, 16, 13, 7, 2, 1, 1, 1, 1, 1, 9, 7, 7, 6, 4, 3, 27, 22, 22, 19, 13, 12, 28, 25, 23, 19, 18, 15, 28, 28, 28, 28, 28, 28, 21, 18, 15, 13, 12, 9, 10, 10, 8, 8, 6, 6, 25, 20, 17, 17, 12, 11, 20, 18, 17, 14, 13, 10, 21, 21, 18, 13, 10, 8, 19, 18, 17, 14, 13, 12, 24, 23, 22, 21, 21, 20, 13, 10, 8, 8, 6, 5, 15, 14, 14, 14, 13, 13, 25, 21, 19, 18, 17, 15, 23, 21, 19, 14, 9, 6
 |19, 19, 17, 16, 15, 13, 25, 25, 24, 24, 23, 22, 21, 18, 17, 13, 11, 10, 20, 17, 16, 13, 11, 10, 24, 21, 14, 12, 10, 4, 20, 20, 19, 19, 19, 18, 18, 15, 15, 11, 8, 4, 19, 15, 13, 11, 10, 6, 19, 15, 11, 9, 6, 3, 29, 27, 22, 19, 16, 14, 17, 13, 11, 6, 4, 3, 22, 19, 18, 16, 14, 11, 18, 13, 12, 9, 4, 1, 23, 22, 19, 18, 13, 11, 24, 20, 17, 16, 15, 10, 29, 26, 25, 24, 22, 20, 19, 17, 16, 14, 10, 8, 25, 23, 23, 23, 22, 21, 15, 11, 9, 7, 5, 4, 17, 16, 14, 13, 10, 9, 17, 17, 16, 15, 15, 14, 17, 17, 17, 17, 16, 16, 26, 24, 22, 20, 20, 18, 25, 21, 17, 12, 11, 9, 24, 24, 22, 21, 20, 20, 26, 25, 25, 24, 24, 23, 21, 21, 21, 21, 21, 21, 19, 16, 13, 13, 7, 6, 5, 4, 4, 3, 3, 3, 28, 27, 27, 26, 24, 23, 6, 6, 6, 6, 6, 6, 20, 18, 17, 12, 10, 7, 26, 24, 20, 20, 16, 16, 6, 6, 6, 6, 6, 6, 21, 18, 18, 16, 12, 11, 26, 22, 19, 13, 7, 5, 23, 18, 17, 13, 12, 7, 16, 15, 11, 10, 9, 4, 26, 26, 26, 25, 25, 25, 26, 22, 20, 12, 11, 8, 23, 19, 16, 14, 11, 7, 22, 22, 22, 22, 21, 21, 27, 21, 18, 16, 9, 8, 16, 15, 14, 13, 12, 11, 16, 14, 13, 13, 10, 8, 17, 14, 12, 10, 9, 8, 15, 13, 11, 10, 10, 8, 29, 26, 22, 16, 13, 9, 27, 20, 20, 16, 9, 9, 25, 23, 19, 19, 16, 11
 |8, 6, 4, 4, 3, 1, 25, 23, 23, 23, 21, 21, 26, 26, 26, 26, 26, 26, 11, 10, 9, 7, 6, 5, 18, 16, 12, 9, 4, 4, 18, 17, 14, 12, 8, 6, 28, 26, 23, 23, 20, 19, 14, 13, 11, 11, 10, 8, 25, 25, 24, 24, 24, 23, 29, 25, 25, 24, 21, 19, 22, 20, 17, 15, 13, 12, 7, 7, 7, 6, 6, 6, 9, 7, 7, 6, 5, 3, 13, 11, 10, 8, 4, 4, 20, 18, 18, 16, 16, 15, 20, 17, 15, 10, 8, 8, 19, 18, 16, 16, 14, 14, 26, 26, 26, 26, 25, 25, 24, 23, 23, 23, 23, 23, 17, 13, 10, 9, 6, 5, 18, 18, 18, 18, 17, 17, 15, 15, 15, 15, 15, 15, 22, 16, 13, 11, 9, 3, 16, 16, 14, 13, 9, 8, 9, 7, 7, 5, 4, 3, 20, 19, 13, 12, 8, 3, 18, 17, 16, 14, 13, 11, 17, 15, 14, 12, 7, 4, 26, 26, 22, 21, 17, 14, 18, 16, 13, 10, 8, 8, 20, 19, 18, 16, 15, 14, 25, 23, 23, 21, 20, 19, 30, 28, 25, 24, 21, 19, 22, 21, 20, 18, 16, 15, 14, 12, 11, 9, 9, 8, 28, 24, 16, 12, 7, 6, 5, 4, 3, 3, 2, 1, 28, 23, 21, 14, 13, 11, 20, 17, 17, 15, 11, 7, 20, 19, 15, 14, 10, 8, 22, 20, 12, 12, 4, 1, 6, 6, 6, 6, 6, 6, 28, 27, 27, 26, 25, 25, 25, 23, 18, 16, 10, 8, 8, 7, 7, 7, 7, 7, 24, 22, 18, 16, 12, 9, 14, 13, 12, 8, 7, 5, 18, 14, 13, 11, 9, 7, 13, 10, 9, 7, 6, 4, 16, 13, 12, 9, 8, 6
 |7, 6, 4, 4, 3, 1, 20, 17, 17, 14, 13, 11, 27, 24, 21, 19, 15, 14, 27, 25, 19, 16, 10, 10, 28, 24, 18, 12, 8, 8, 23, 21, 18, 10, 9, 4, 27, 21, 19, 19, 13, 12, 20, 17, 16, 14, 14, 12, 26, 25, 25, 25, 24, 24, 19, 16, 15, 13, 10, 5, 19, 17, 15, 15, 12, 12, 11, 8, 7, 5, 5, 4, 14, 14, 14, 14, 14, 14, 23, 21, 19, 15, 14, 11, 6, 6, 5, 5, 5, 4, 24, 19, 19, 12, 7, 4, 23, 19, 17, 13, 6, 3, 22, 19, 16, 14, 11, 7, 20, 17, 14, 10, 8, 2, 18, 16, 13, 9, 7, 5, 28, 27, 25, 25, 21, 20, 20, 15, 12, 9, 5, 5, 28, 20, 18, 13, 6, 1, 26, 20, 17, 9, 9, 5, 27, 26, 25, 24, 24, 23, 18, 16, 13, 12, 10, 5, 20, 20, 20, 20, 20, 20, 16, 12, 11, 7, 5, 2, 26, 23, 22, 19, 19, 17, 17, 14, 11, 8, 6, 4, 21, 18, 18, 14, 9, 8, 29, 29, 28, 28, 27, 27, 25, 20, 19, 15, 8, 6, 20, 20, 18, 15, 13, 11, 27, 25, 22, 16, 13, 9, 24, 23, 23, 23, 23, 23, 20, 18, 17, 16, 15, 13, 16, 12, 10, 7, 7, 5, 28, 21, 20, 12, 11, 4, 14, 12, 12, 10, 9, 7, 11, 11, 7, 6, 4, 3, 26, 25, 22, 19, 17, 17, 30, 28, 27, 24, 23, 22, 28, 24, 23, 19, 15, 15, 21, 20, 17, 15, 13, 10, 11, 10, 9, 7, 7, 5, 24, 19, 19, 14, 9, 7, 29, 21, 20, 16, 9, 8, 8, 8, 7, 7, 7, 6, 16, 14, 14, 12, 9, 8
 |16, 16, 16, 16, 16, 16, 14, 14, 13, 13, 12, 12, 30, 24, 24, 18, 15, 14, 15, 14, 14, 14, 14, 14, 24, 21, 20, 17, 15, 12, 27, 24, 23, 19, 19, 17, 10, 8, 6, 4, 4, 3, 24, 21, 17, 13, 10, 8, 23, 17, 14, 14, 8, 8, 17, 16, 15, 14, 13, 12, 19, 17, 15, 14, 13, 12, 25, 20, 15, 13, 7, 5, 13, 10, 8, 5, 4, 3, 19, 17, 17, 16, 14, 11, 15, 15, 13, 12, 11, 10, 26, 25, 21, 19, 18, 15, 20, 19, 16, 15, 11, 10, 23, 19, 16, 14, 12, 10, 25, 22, 18, 16, 13, 13, 18, 18, 16, 12, 11, 7, 25, 24, 22, 22, 21, 20, 14, 13, 10, 9, 5, 2, 15, 12, 10, 10, 4, 3, 9, 8, 7, 7, 5, 5, 20, 18, 18, 17, 16, 16, 22, 21, 20, 18, 17, 16, 23, 22, 16, 15, 10, 7, 30, 28, 27, 26, 25, 25, 17, 16, 16, 16, 15, 15, 28, 28, 28, 28, 27, 27, 18, 16, 15, 13, 12, 11, 29, 22, 17, 16, 11, 8, 18, 18, 18, 17, 17, 16, 22, 19, 14, 12, 11, 7, 26, 25, 22, 19, 16, 12, 17, 16, 16, 15, 13, 13, 17, 16, 15, 11, 8, 6, 22, 21, 18, 18, 15, 13, 24, 22, 20, 19, 15, 15, 26, 20, 17, 11, 6, 3, 10, 9, 9, 7, 7, 6, 29, 26, 23, 20, 14, 12, 23, 21, 21, 20, 19, 19, 21, 19, 19, 17, 17, 15, 28, 28, 27, 27, 26, 26, 20, 17, 14, 10, 10, 8, 18, 16, 15, 14, 12, 11, 29, 23, 21, 15, 11, 8, 22, 22, 21, 20, 18, 16, 12, 11, 11, 10, 10, 10
 |28, 27, 27, 27, 27, 27, 22, 21, 20, 19, 18, 17, 21, 19, 16, 14, 14, 10, 13, 13, 13, 13, 13, 13, 24, 19, 18, 16, 10, 8, 13, 12, 12, 11, 10, 9, 15, 14, 14, 13, 12, 12, 28, 25, 21, 20, 16, 13, 27, 27, 25, 24, 22, 21, 24, 23, 23, 21, 20, 19, 4, 4, 4, 4, 4, 4, 3, 3, 3, 2, 1, 1, 19, 16, 14, 12, 11, 10, 25, 23, 23, 22, 22, 21, 16, 14, 12, 10, 7, 6, 16, 15, 13, 11, 8, 4, 18, 16, 14, 7, 6, 4, 20, 18, 17, 14, 14, 11, 23, 19, 17, 11, 7, 6, 26, 25, 25, 25, 24, 23, 20, 18, 15, 15, 13, 12, 13, 13, 13, 13, 13, 13, 23, 21, 19, 17, 14, 13, 17, 16, 11, 8, 6, 4, 3, 3, 3, 2, 1, 1, 6, 5, 5, 4, 3, 3, 7, 6, 6, 6, 5, 5, 25, 23, 21, 19, 16, 12, 28, 26, 25, 22, 19, 19, 24, 19, 18, 15, 12, 9, 20, 15, 12, 7, 7, 3, 13, 11, 10, 9, 8, 8, 13, 12, 11, 8, 6, 3, 15, 14, 14, 12, 12, 11, 19, 18, 17, 14, 12, 12, 16, 13, 13, 11, 7, 6, 24, 21, 16, 13, 12, 7, 13, 11, 10, 10, 7, 6, 25, 24, 22, 22, 20, 20, 4, 4, 4, 4, 4, 4, 25, 22, 20, 19, 17, 15, 13, 10, 10, 8, 8, 6, 17, 16, 13, 7, 5, 2, 19, 19, 18, 16, 16, 14, 22, 19, 17, 11, 8, 4, 26, 24, 23, 22, 21, 19, 26, 25, 22, 17, 13, 9, 7, 6, 6, 6, 5, 5, 29, 22, 20, 16, 11, 8, 27, 20, 15, 12, 8, 5
 |24, 20, 18, 16, 15, 10, 21, 19, 17, 14, 14, 11, 10, 10, 8, 6, 6, 4, 10, 10, 10, 10, 10, 10, 24, 23, 23, 20, 20, 19, 24, 22, 22, 21, 19, 18, 13, 12, 9, 9, 5, 5, 20, 19, 17, 14, 12, 8, 20, 19, 19, 17, 17, 16, 24, 21, 18, 16, 11, 7, 17, 14, 11, 9, 6, 2, 30, 26, 21, 20, 16, 15, 22, 21, 20, 18, 16, 16, 26, 22, 18, 17, 13, 12, 25, 25, 24, 23, 21, 21, 24, 22, 19, 11, 7, 6, 10, 8, 6, 4, 4, 1, 28, 23, 20, 17, 13, 9, 26, 25, 23, 23, 22, 21, 20, 18, 14, 11, 11, 5, 8, 8, 8, 8, 7, 7, 14, 12, 12, 11, 9, 8, 20, 19, 16, 15, 11, 10, 6, 5, 4, 4, 3, 3, 29, 29, 29, 29, 29, 29, 24, 17, 13, 10, 9, 3, 7, 5, 5, 3, 2, 2, 22, 19, 14, 10, 9, 5, 6, 5, 5, 5, 4, 4, 15, 12, 11, 7, 5, 3, 25, 22, 18, 16, 11, 11, 27, 25, 21, 19, 16, 11, 21, 20, 19, 19, 17, 17, 24, 22, 18, 15, 12, 11, 27, 24, 20, 16, 10, 8, 30, 27, 27, 24, 23, 23, 24, 20, 20, 16, 14, 14, 26, 25, 25, 24, 24, 24, 27, 27, 23, 21, 20, 17, 24, 23, 23, 21, 20, 20, 20, 18, 17, 16, 15, 14, 30, 29, 29, 28, 28, 28, 26, 26, 26, 26, 26, 26, 12, 12, 10, 9, 8, 6, 25, 25, 23, 23, 22, 21, 9, 9, 9, 9, 9, 9, 15, 13, 13, 11, 10, 9, 26, 26, 24, 20, 20, 17, 7, 6, 4, 3, 2, 2, 25, 24, 23, 23, 22, 22|];